Maximize
F - f1 - f2

Subject to
F - 10y1 - 10y17 - 5y27 - 15y30 - 20y61 - 10y70 - 10y74 - 0y95 - 20y109 - 0y113 - 5y121 - 0y122 - 20y150 - 15y176 - 5y185 - 15y210 - 0y222 - 10y226 - 20y228 - 0y267 - 20y271 - 5y212 - 10y149 - 10y151 - 10y21 - 15y118 - 5y299 - 5y251 - 20y214 = 0
f1 - 0.005043s1 - 0.005043s17 - 0.005043s27 - 0.005043s30 - 0.005043s61 - 0.005043s70 - 0.005043s74 - 0.005043s95 - 0.005043s109 - 0.005043s113 - 0.005043s121 - 0.005043s122 - 0.005043s150 - 0.005043s176 - 0.005043s185 - 0.005043s210 - 0.005043s222 - 0.005043s226 - 0.005043s228 - 0.005043s267 - 0.005043s271 - 0.005043s212 - 0.005043s149 - 0.005043s151 - 0.005043s21 - 0.005043s118 - 0.005043s299 - 0.005043s251 - 0.005043s214  = 0
f2 - 0.69y1 - 1.15y17 - 1.21y27 - 3.39y30 - 1.74y61 - 1.09y70 - 1.88y74 - 1.25y95 - 1.90y109 - 1.20y113 - 1.40y121 - 2.23y122 - 1.05y150 - 1.22y176 - 1.35y185 - 1.04y210 - 1.11y222 - 2.53y226 - 0.93y228 - 1.19y267 - 0.94y271 - 0.52y212 - 0.39y149 - 0.42y151 - 0.12y21 - 0.09y118 - 0.09y299 - 0.13y251 - 0.07y214 = 0

x95x27x1 + x95x70x1 + x95x151x1 + x95x299x1 + x95x251x1 
<= 1
x262x1x1 + x262x17x1 + x262x27x1 + x262x70x1 + x262x95x1 + x262x121x1 + x262x122x1 + x262x150x1 + x262x185x1 + x262x271x1 + x262x151x1 + x262x299x1 + x262x251x1 
<= 1
x38x1x1 + x38x17x1 + x38x27x1 + x38x70x1 + x38x95x1 + x38x121x1 + x38x150x1 + x38x185x1 + x38x271x1 + x38x151x1 + x38x299x1 + x38x251x1 
<= 2
x86x1x1 + x86x17x1 + x86x27x1 + x86x70x1 + x86x95x1 + x86x121x1 + x86x150x1 + x86x185x1 + x86x271x1 + x86x151x1 + x86x299x1 + x86x251x1 
<= 1
x132x1x1 + x132x27x1 + x132x70x1 + x132x151x1 + x132x299x1 + x132x251x1 
<= 1
x283x1x1 + x283x17x1 + x283x27x1 + x283x70x1 + x283x95x1 + x283x121x1 + x283x150x1 + x283x185x1 + x283x271x1 + x283x151x1 + x283x299x1 + x283x251x1 
<= 1
x99x151x1 + x99x299x1 + x99x251x1 
<= 1
x267x17x2 + x267x113x2 + x267x222x2 + x267x228x2 + x267x267x2 + x267x212x2 + x267x151x2 + x267x118x2 
<= 2
x113x113x2 + x113x228x2 + x113x212x2 + x113x151x2 + x113x118x2 
<= 2
x222x222x2 + x222x228x2 + x222x212x2 + x222x151x2 + x222x118x2 
<= 2
x4x17x2 + x4x61x2 + x4x109x2 + x4x113x2 + x4x150x2 + x4x176x2 + x4x222x2 + x4x228x2 + x4x267x2 + x4x212x2 + x4x151x2 + x4x118x2 
<= 1
x266x17x2 + x266x30x2 + x266x61x2 + x266x109x2 + x266x113x2 + x266x150x2 + x266x176x2 + x266x222x2 + x266x226x2 + x266x228x2 + x266x267x2 + x266x212x2 + x266x151x2 + x266x118x2 
<= 1
x86x17x2 + x86x61x2 + x86x113x2 + x86x150x2 + x86x176x2 + x86x222x2 + x86x228x2 + x86x267x2 + x86x212x2 + x86x151x2 + x86x118x2 
<= 1
x95x27x3 + x95x149x3 + x95x21x3 + x95x299x3 + x95x251x3 + x95x214x3 
<= 1
x262x1x3 + x262x27x3 + x262x30x3 + x262x74x3 + x262x95x3 + x262x121x3 + x262x122x3 + x262x176x3 + x262x185x3 + x262x210x3 + x262x271x3 + x262x149x3 + x262x21x3 + x262x299x3 + x262x251x3 + x262x214x3 
<= 1
x4x1x3 + x4x27x3 + x4x74x3 + x4x95x3 + x4x121x3 + x4x122x3 + x4x176x3 + x4x185x3 + x4x210x3 + x4x271x3 + x4x149x3 + x4x21x3 + x4x299x3 + x4x251x3 + x4x214x3 
<= 1
x132x1x3 + x132x27x3 + x132x176x3 + x132x149x3 + x132x21x3 + x132x299x3 + x132x251x3 + x132x214x3 
<= 1
x283x1x3 + x283x27x3 + x283x95x3 + x283x121x3 + x283x176x3 + x283x185x3 + x283x210x3 + x283x271x3 + x283x149x3 + x283x21x3 + x283x299x3 + x283x251x3 + x283x214x3 
<= 1
x99x21x3 + x99x299x3 + x99x251x3 + x99x214x3 
<= 1
x290x1x3 + x290x27x3 + x290x95x3 + x290x176x3 + x290x185x3 + x290x210x3 + x290x271x3 + x290x149x3 + x290x21x3 + x290x299x3 + x290x251x3 + x290x214x3 
<= 2

x262x1x1 + x38x1x1 + x86x1x1 + x132x1x1 + x283x1x1 
- x1x0x1
- x1x151x1 - x1x299x1 - x1x251x1 
= 0

x262x1x3 + x4x1x3 + x132x1x3 + x283x1x3 + x290x1x3 
- x1x0x3
- x1x149x3 - x1x21x3 - x1x299x3 - x1x251x3 - x1x214x3 
= 0

x262x17x1 + x38x17x1 + x86x17x1 + x283x17x1 
- x17x0x1
- x17x299x1 - x17x251x1 
= 0
x267x17x2 + x4x17x2 + x266x17x2 + x86x17x2 
- x17x0x2
- x17x118x2 
= 0


x95x27x1 + x262x27x1 + x38x27x1 + x86x27x1 + x132x27x1 + x283x27x1 
- x27x0x1

= 0

x95x27x3 + x262x27x3 + x4x27x3 + x132x27x3 + x283x27x3 + x290x27x3 
- x27x0x3
- x27x214x3 
= 0


x266x30x2 
- x30x0x2

= 0
x262x30x3 
- x30x0x3

= 0


x4x61x2 + x266x61x2 + x86x61x2 
- x61x0x2
- x61x118x2 
= 0


x95x70x1 + x262x70x1 + x38x70x1 + x86x70x1 + x132x70x1 + x283x70x1 
- x70x0x1
- x70x251x1 
= 0





x262x74x3 + x4x74x3 
- x74x0x3
- x74x214x3 
= 0

x262x95x1 + x38x95x1 + x86x95x1 + x283x95x1 
- x95x0x1
- x95x299x1 - x95x251x1 
= 0

x262x95x3 + x4x95x3 + x283x95x3 + x290x95x3 
- x95x0x3
- x95x21x3 - x95x299x3 - x95x251x3 - x95x214x3 
= 0


x4x109x2 + x266x109x2 
- x109x0x2
- x109x118x2 
= 0



x267x113x2 + x113x113x2 + x4x113x2 + x266x113x2 + x86x113x2 
- x113x0x2
- x113x118x2 
= 0


x262x121x1 + x38x121x1 + x86x121x1 + x283x121x1 
- x121x0x1
- x121x299x1 - x121x251x1 
= 0

x262x121x3 + x4x121x3 + x283x121x3 
- x121x0x3
- x121x21x3 - x121x299x3 - x121x251x3 - x121x214x3 
= 0

x262x122x1 
- x122x0x1

= 0

x262x122x3 + x4x122x3 
- x122x0x3

= 0

x262x150x1 + x38x150x1 + x86x150x1 + x283x150x1 
- x150x0x1
- x150x299x1 - x150x251x1 
= 0
x4x150x2 + x266x150x2 + x86x150x2 
- x150x0x2
- x150x118x2 
= 0



x4x176x2 + x266x176x2 + x86x176x2 
- x176x0x2
- x176x151x2 - x176x118x2 
= 0
x262x176x3 + x4x176x3 + x132x176x3 + x283x176x3 + x290x176x3 
- x176x0x3
- x176x21x3 - x176x299x3 - x176x251x3 - x176x214x3 
= 0

x262x185x1 + x38x185x1 + x86x185x1 + x283x185x1 
- x185x0x1

= 0

x262x185x3 + x4x185x3 + x283x185x3 + x290x185x3 
- x185x0x3
- x185x214x3 
= 0



x262x210x3 + x4x210x3 + x283x210x3 + x290x210x3 
- x210x0x3
- x210x149x3 - x210x21x3 - x210x299x3 - x210x251x3 - x210x214x3 
= 0


x267x222x2 + x222x222x2 + x4x222x2 + x266x222x2 + x86x222x2 
- x222x0x2
- x222x118x2 
= 0



- x226x251x1 
= 0
x266x226x2 
- x226x0x2

= 0



x267x228x2 + x113x228x2 + x222x228x2 + x4x228x2 + x266x228x2 + x86x228x2 
- x228x0x2
- x228x118x2 
= 0



x267x267x2 + x4x267x2 + x266x267x2 + x86x267x2 
- x267x0x2
- x267x118x2 
= 0


x262x271x1 + x38x271x1 + x86x271x1 + x283x271x1 
- x271x0x1
- x271x151x1 - x271x299x1 - x271x251x1 
= 0

x262x271x3 + x4x271x3 + x283x271x3 + x290x271x3 
- x271x0x3
- x271x149x3 - x271x21x3 - x271x299x3 - x271x251x3 - x271x214x3 
= 0


x267x212x2 + x113x212x2 + x222x212x2 + x4x212x2 + x266x212x2 + x86x212x2 
- x212x0x2
- x212x151x2 - x212x118x2 
= 0




x95x149x3 + x262x149x3 + x4x149x3 + x132x149x3 + x283x149x3 + x290x149x3 + x1x149x3 + x210x149x3 + x271x149x3 
- x149x0x3
- x149x21x3 - x149x299x3 - x149x251x3 - x149x214x3 
= 0

x95x151x1 + x262x151x1 + x38x151x1 + x86x151x1 + x132x151x1 + x283x151x1 + x99x151x1 + x1x151x1 + x271x151x1 
- x151x0x1
- x151x299x1 - x151x251x1 
= 0
x267x151x2 + x113x151x2 + x222x151x2 + x4x151x2 + x266x151x2 + x86x151x2 + x176x151x2 + x212x151x2 
- x151x0x2
- x151x118x2 
= 0




x95x21x3 + x262x21x3 + x4x21x3 + x132x21x3 + x283x21x3 + x99x21x3 + x290x21x3 + x1x21x3 + x95x21x3 + x121x21x3 + x176x21x3 + x210x21x3 + x271x21x3 + x149x21x3 
- x21x0x3
- x21x299x3 - x21x251x3 - x21x214x3 
= 0


x267x118x2 + x113x118x2 + x222x118x2 + x4x118x2 + x266x118x2 + x86x118x2 + x17x118x2 + x61x118x2 + x109x118x2 + x113x118x2 + x150x118x2 + x176x118x2 + x222x118x2 + x228x118x2 + x267x118x2 + x212x118x2 + x151x118x2 
- x118x0x2

= 0


x95x299x1 + x262x299x1 + x38x299x1 + x86x299x1 + x132x299x1 + x283x299x1 + x99x299x1 + x1x299x1 + x17x299x1 + x95x299x1 + x121x299x1 + x150x299x1 + x271x299x1 + x151x299x1 
- x299x0x1
- x299x251x1 
= 0

x95x299x3 + x262x299x3 + x4x299x3 + x132x299x3 + x283x299x3 + x99x299x3 + x290x299x3 + x1x299x3 + x95x299x3 + x121x299x3 + x176x299x3 + x210x299x3 + x271x299x3 + x149x299x3 + x21x299x3 
- x299x0x3
- x299x251x3 - x299x214x3 
= 0

x95x251x1 + x262x251x1 + x38x251x1 + x86x251x1 + x132x251x1 + x283x251x1 + x99x251x1 + x1x251x1 + x17x251x1 + x70x251x1 + x95x251x1 + x121x251x1 + x150x251x1 + x226x251x1 + x271x251x1 + x151x251x1 + x299x251x1 
- x251x0x1

= 0

x95x251x3 + x262x251x3 + x4x251x3 + x132x251x3 + x283x251x3 + x99x251x3 + x290x251x3 + x1x251x3 + x95x251x3 + x121x251x3 + x176x251x3 + x210x251x3 + x271x251x3 + x149x251x3 + x21x251x3 + x299x251x3 
- x251x0x3
- x251x214x3 
= 0



x95x214x3 + x262x214x3 + x4x214x3 + x132x214x3 + x283x214x3 + x99x214x3 + x290x214x3 + x1x214x3 + x27x214x3 + x74x214x3 + x95x214x3 + x121x214x3 + x176x214x3 + x185x214x3 + x210x214x3 + x271x214x3 + x149x214x3 + x21x214x3 + x299x214x3 + x251x214x3 
- x214x0x3

= 0

1y1 - x262x1x1 - x38x1x1 - x86x1x1 - x132x1x1 - x283x1x1 = 0
1y1 - x262x1x3 - x4x1x3 - x132x1x3 - x283x1x3 - x290x1x3 = 0
1y17 - x262x17x1 - x38x17x1 - x86x17x1 - x283x17x1 = 0
1y17 - x267x17x2 - x4x17x2 - x266x17x2 - x86x17x2 = 0
1y27 - x95x27x1 - x262x27x1 - x38x27x1 - x86x27x1 - x132x27x1 - x283x27x1 = 0
1y27 - x95x27x3 - x262x27x3 - x4x27x3 - x132x27x3 - x283x27x3 - x290x27x3 = 0
1y30 - x266x30x2 = 0
1y30 - x262x30x3 = 0
2y61 - x4x61x2 - x266x61x2 - x86x61x2 = 0
2y70 - x95x70x1 - x262x70x1 - x38x70x1 - x86x70x1 - x132x70x1 - x283x70x1 = 0
2y74 - x262x74x3 - x4x74x3 = 0
1y95 - x262x95x1 - x38x95x1 - x86x95x1 - x283x95x1 = 0
1y95 - x262x95x3 - x4x95x3 - x283x95x3 - x290x95x3 = 0
2y109 - x4x109x2 - x266x109x2 = 0
2y113 - x267x113x2 - x113x113x2 - x4x113x2 - x266x113x2 - x86x113x2 = 0
1y121 - x262x121x1 - x38x121x1 - x86x121x1 - x283x121x1 = 0
1y121 - x262x121x3 - x4x121x3 - x283x121x3 = 0
1y122 - x262x122x1 = 0
1y122 - x262x122x3 - x4x122x3 = 0
1y150 - x262x150x1 - x38x150x1 - x86x150x1 - x283x150x1 = 0
1y150 - x4x150x2 - x266x150x2 - x86x150x2 = 0
1y176 - x4x176x2 - x266x176x2 - x86x176x2 = 0
1y176 - x262x176x3 - x4x176x3 - x132x176x3 - x283x176x3 - x290x176x3 = 0
1y185 - x262x185x1 - x38x185x1 - x86x185x1 - x283x185x1 = 0
1y185 - x262x185x3 - x4x185x3 - x283x185x3 - x290x185x3 = 0
2y210 - x262x210x3 - x4x210x3 - x283x210x3 - x290x210x3 = 0
2y222 - x267x222x2 - x222x222x2 - x4x222x2 - x266x222x2 - x86x222x2 = 0
1y226 = 0
1y226 - x266x226x2 = 0
2y228 - x267x228x2 - x113x228x2 - x222x228x2 - x4x228x2 - x266x228x2 - x86x228x2 = 0
2y267 - x267x267x2 - x4x267x2 - x266x267x2 - x86x267x2 = 0
1y271 - x262x271x1 - x38x271x1 - x86x271x1 - x283x271x1 = 0
1y271 - x262x271x3 - x4x271x3 - x283x271x3 - x290x271x3 = 0
2y212 - x267x212x2 - x113x212x2 - x222x212x2 - x4x212x2 - x266x212x2 - x86x212x2 = 0
2y149 - x95x149x3 - x262x149x3 - x4x149x3 - x132x149x3 - x283x149x3 - x290x149x3 - x1x149x3 - x210x149x3 - x271x149x3 = 0
1y151 - x95x151x1 - x262x151x1 - x38x151x1 - x86x151x1 - x132x151x1 - x283x151x1 - x99x151x1 - x1x151x1 - x271x151x1 = 0
1y151 - x267x151x2 - x113x151x2 - x222x151x2 - x4x151x2 - x266x151x2 - x86x151x2 - x176x151x2 - x212x151x2 = 0
2y21 - x95x21x3 - x262x21x3 - x4x21x3 - x132x21x3 - x283x21x3 - x99x21x3 - x290x21x3 - x1x21x3 - x95x21x3 - x121x21x3 - x176x21x3 - x210x21x3 - x271x21x3 - x149x21x3 = 0
2y118 - x267x118x2 - x113x118x2 - x222x118x2 - x4x118x2 - x266x118x2 - x86x118x2 - x17x118x2 - x61x118x2 - x109x118x2 - x113x118x2 - x150x118x2 - x176x118x2 - x222x118x2 - x228x118x2 - x267x118x2 - x212x118x2 - x151x118x2 = 0
1y299 - x95x299x1 - x262x299x1 - x38x299x1 - x86x299x1 - x132x299x1 - x283x299x1 - x99x299x1 - x1x299x1 - x17x299x1 - x95x299x1 - x121x299x1 - x150x299x1 - x271x299x1 - x151x299x1 = 0
1y299 - x95x299x3 - x262x299x3 - x4x299x3 - x132x299x3 - x283x299x3 - x99x299x3 - x290x299x3 - x1x299x3 - x95x299x3 - x121x299x3 - x176x299x3 - x210x299x3 - x271x299x3 - x149x299x3 - x21x299x3 = 0
1y251 - x95x251x1 - x262x251x1 - x38x251x1 - x86x251x1 - x132x251x1 - x283x251x1 - x99x251x1 - x1x251x1 - x17x251x1 - x70x251x1 - x95x251x1 - x121x251x1 - x150x251x1 - x226x251x1 - x271x251x1 - x151x251x1 - x299x251x1 = 0
1y251 - x95x251x3 - x262x251x3 - x4x251x3 - x132x251x3 - x283x251x3 - x99x251x3 - x290x251x3 - x1x251x3 - x95x251x3 - x121x251x3 - x176x251x3 - x210x251x3 - x271x251x3 - x149x251x3 - x21x251x3 - x299x251x3 = 0
2y214 - x95x214x3 - x262x214x3 - x4x214x3 - x132x214x3 - x283x214x3 - x99x214x3 - x290x214x3 - x1x214x3 - x27x214x3 - x74x214x3 - x95x214x3 - x121x214x3 - x176x214x3 - x185x214x3 - x210x214x3 - x271x214x3 - x149x214x3 - x21x214x3 - x299x214x3 - x251x214x3 = 0

s95 - s27 + 6.849209z95z27z1 <= 5.78
s95 - s27 + 6.849209z95z27z3 <= 5.78
s95 - s70 + 6.839502z95z70z1 <= 5.78
s95 - s149 + 7.043991z95z149z3 <= 5.78
s95 - s151 + 7.089860z95z151z1 <= 5.78
s95 - s21 + 7.134615z95z21z3 <= 5.78
s95 - s299 + 7.149391z95z299z1 <= 5.78
s95 - s299 + 7.149391z95z299z3 <= 5.78
s95 - s251 + 7.160196z95z251z1 <= 5.78
s95 - s251 + 7.160196z95z251z3 <= 5.78
s95 - s214 + 7.172699z95z214z3 <= 5.78
s267 - s17 + 6.756667z267z17z2 <= 5.75
s267 - s113 + 6.768856z267z113z2 <= 5.75
s267 - s222 + 6.763333z267z222z2 <= 5.75
s267 - s228 + 6.783333z267z228z2 <= 5.75
s267 - s267 + 6.750000z267z267z2 <= 5.75
s267 - s212 + 6.948215z267z212z2 <= 5.75
s267 - s151 + 7.063049z267z151z2 <= 5.75
s267 - s118 + 7.112828z267z118z2 <= 5.75
s113 - s113 + 6.790000z113z113z2 <= 5.79
s113 - s228 + 6.830552z113z228z2 <= 5.79
s113 - s212 + 7.005406z113z212z2 <= 5.79
s113 - s151 + 7.120992z113z151z2 <= 5.79
s113 - s118 + 7.170058z113z118z2 <= 5.79
s222 - s222 + 6.790000z222z222z2 <= 5.79
s222 - s228 + 6.814037z222z228z2 <= 5.79
s222 - s212 + 6.975712z222z212z2 <= 5.79
s222 - s151 + 7.091183z222z151z2 <= 5.79
s222 - s118 + 7.140365z222z118z2 <= 5.79
s262 - s1 + 6.320778z262z1z1 <= 4.83
s262 - s1 + 6.320778z262z1z3 <= 4.83
s262 - s17 + 6.179713z262z17z1 <= 4.83
s262 - s27 + 6.138411z262z27z1 <= 4.83
s262 - s27 + 6.138411z262z27z3 <= 4.83
s262 - s30 + 6.178238z262z30z3 <= 4.83
s262 - s70 + 6.158046z262z70z1 <= 4.83
s262 - s74 + 6.108715z262z74z3 <= 4.83
s262 - s95 + 6.172535z262z95z1 <= 4.83
s262 - s95 + 6.172535z262z95z3 <= 4.83
s262 - s121 + 6.243215z262z121z1 <= 4.83
s262 - s121 + 6.243215z262z121z3 <= 4.83
s262 - s122 + 6.048392z262z122z1 <= 4.83
s262 - s122 + 6.048392z262z122z3 <= 4.83
s262 - s150 + 6.232970z262z150z1 <= 4.83
s262 - s176 + 6.387247z262z176z3 <= 4.83
s262 - s185 + 6.134316z262z185z1 <= 4.83
s262 - s185 + 6.134316z262z185z3 <= 4.83
s262 - s210 + 6.382904z262z210z3 <= 4.83
s262 - s271 + 6.328006z262z271z1 <= 4.83
s262 - s271 + 6.328006z262z271z3 <= 4.83
s262 - s149 + 6.424566z262z149z3 <= 4.83
s262 - s151 + 6.463976z262z151z1 <= 4.83
s262 - s21 + 6.514200z262z21z3 <= 4.83
s262 - s299 + 6.528427z262z299z1 <= 4.83
s262 - s299 + 6.528427z262z299z3 <= 4.83
s262 - s251 + 6.537279z262z251z1 <= 4.83
s262 - s251 + 6.537279z262z251z3 <= 4.83
s262 - s214 + 6.550399z262z214z3 <= 4.83
s4 - s1 + 6.318555z4z1z3 <= 4.86
s4 - s17 + 6.168531z4z17z2 <= 4.86
s4 - s27 + 6.116818z4z27z3 <= 4.86
s4 - s61 + 6.397489z4z61z2 <= 4.86
s4 - s74 + 6.118432z4z74z3 <= 4.86
s4 - s95 + 6.164883z4z95z3 <= 4.86
s4 - s109 + 6.242774z4z109z2 <= 4.86
s4 - s113 + 6.146490z4z113z2 <= 4.86
s4 - s121 + 6.255605z4z121z3 <= 4.86
s4 - s122 + 6.063147z4z122z3 <= 4.86
s4 - s150 + 6.229681z4z150z2 <= 4.86
s4 - s176 + 6.408419z4z176z2 <= 4.86
s4 - s176 + 6.408419z4z176z3 <= 4.86
s4 - s185 + 6.120205z4z185z3 <= 4.86
s4 - s210 + 6.398677z4z210z3 <= 4.86
s4 - s222 + 6.175076z4z222z2 <= 4.86
s4 - s228 + 6.185157z4z228z2 <= 4.86
s4 - s267 + 6.161991z4z267z2 <= 4.86
s4 - s271 + 6.335170z4z271z3 <= 4.86
s4 - s212 + 6.358931z4z212z2 <= 4.86
s4 - s149 + 6.425651z4z149z3 <= 4.86
s4 - s151 + 6.469564z4z151z2 <= 4.86
s4 - s21 + 6.516319z4z21z3 <= 4.86
s4 - s118 + 6.522717z4z118z2 <= 4.86
s4 - s299 + 6.530999z4z299z3 <= 4.86
s4 - s251 + 6.541291z4z251z3 <= 4.86
s4 - s214 + 6.554015z4z214z3 <= 4.86
s266 - s17 + 6.104309z266z17z2 <= 4.78
s266 - s30 + 6.127428z266z30z2 <= 4.78
s266 - s61 + 6.298740z266z61z2 <= 4.78
s266 - s109 + 6.147985z266z109z2 <= 4.78
s266 - s113 + 6.084906z266z113z2 <= 4.78
s266 - s150 + 6.159058z266z150z2 <= 4.78
s266 - s176 + 6.319113z266z176z2 <= 4.78
s266 - s222 + 6.110974z266z222z2 <= 4.78
s266 - s226 + 6.124827z266z226z2 <= 4.78
s266 - s228 + 6.125284z266z228z2 <= 4.78
s266 - s267 + 6.097644z266z267z2 <= 4.78
s266 - s212 + 6.287827z266z212z2 <= 4.78
s266 - s151 + 6.392370z266z151z2 <= 4.78
s266 - s118 + 6.448502z266z118z2 <= 4.78
s38 - s1 + 6.393083z38z1z1 <= 4.94
s38 - s17 + 6.246439z38z17z1 <= 4.94
s38 - s27 + 6.185012z38z27z1 <= 4.94
s38 - s70 + 6.200042z38z70z1 <= 4.94
s38 - s95 + 6.250827z38z95z1 <= 4.94
s38 - s121 + 6.364906z38z121z1 <= 4.94
s38 - s150 + 6.312855z38z150z1 <= 4.94
s38 - s185 + 6.203855z38z185z1 <= 4.94
s38 - s271 + 6.426367z38z271z1 <= 4.94
s38 - s151 + 6.548122z38z151z1 <= 4.94
s38 - s299 + 6.600541z38z299z1 <= 4.94
s38 - s251 + 6.613165z38z251z1 <= 4.94
s86 - s1 + 6.476111z86z1z1 <= 5.04
s86 - s17 + 6.329373z86z17z1 <= 5.04
s86 - s17 + 6.329373z86z17z2 <= 5.04
s86 - s27 + 6.282842z86z27z1 <= 5.04
s86 - s61 + 6.543430z86z61z2 <= 5.04
s86 - s70 + 6.302778z86z70z1 <= 5.04
s86 - s95 + 6.323987z86z95z1 <= 5.04
s86 - s113 + 6.308760z86z113z2 <= 5.04
s86 - s121 + 6.407219z86z121z1 <= 5.04
s86 - s150 + 6.387263z86z150z1 <= 5.04
s86 - s150 + 6.387263z86z150z2 <= 5.04
s86 - s176 + 6.557805z86z176z2 <= 5.04
s86 - s185 + 6.282103z86z185z1 <= 5.04
s86 - s222 + 6.336024z86z222z2 <= 5.04
s86 - s228 + 6.348677z86z228z2 <= 5.04
s86 - s267 + 6.322723z86z267z2 <= 5.04
s86 - s271 + 6.489025z86z271z1 <= 5.04
s86 - s212 + 6.516656z86z212z2 <= 5.04
s86 - s151 + 6.624419z86z151z1 <= 5.04
s86 - s151 + 6.624419z86z151z2 <= 5.04
s86 - s118 + 6.679121z86z118z2 <= 5.04
s86 - s299 + 6.687162z86z299z1 <= 5.04
s86 - s251 + 6.696906z86z251z1 <= 5.04
s132 - s1 + 6.903150z132z1z1 <= 5.08
s132 - s1 + 6.903150z132z1z3 <= 5.08
s132 - s27 + 6.801138z132z27z1 <= 5.08
s132 - s27 + 6.801138z132z27z3 <= 5.08
s132 - s70 + 6.816539z132z70z1 <= 5.08
s132 - s176 + 6.879509z132z176z3 <= 5.08
s132 - s149 + 6.978573z132z149z3 <= 5.08
s132 - s151 + 6.996469z132z151z1 <= 5.08
s132 - s21 + 7.051308z132z21z3 <= 5.08
s132 - s299 + 7.061996z132z299z1 <= 5.08
s132 - s299 + 7.061996z132z299z3 <= 5.08
s132 - s251 + 7.064497z132z251z1 <= 5.08
s132 - s251 + 7.064497z132z251z3 <= 5.08
s132 - s214 + 7.077290z132z214z3 <= 5.08
s283 - s1 + 6.474061z283z1z1 <= 5.03
s283 - s1 + 6.474061z283z1z3 <= 5.03
s283 - s17 + 6.333983z283z17z1 <= 5.03
s283 - s27 + 6.294759z283z27z1 <= 5.03
s283 - s27 + 6.294759z283z27z3 <= 5.03
s283 - s70 + 6.314146z283z70z1 <= 5.03
s283 - s95 + 6.326437z283z95z1 <= 5.03
s283 - s95 + 6.326437z283z95z3 <= 5.03
s283 - s121 + 6.396607z283z121z1 <= 5.03
s283 - s121 + 6.396607z283z121z3 <= 5.03
s283 - s150 + 6.386385z283z150z1 <= 5.03
s283 - s176 + 6.541612z283z176z3 <= 5.03
s283 - s185 + 6.289272z283z185z1 <= 5.03
s283 - s185 + 6.289272z283z185z3 <= 5.03
s283 - s210 + 6.536696z283z210z3 <= 5.03
s283 - s271 + 6.481255z283z271z1 <= 5.03
s283 - s271 + 6.481255z283z271z3 <= 5.03
s283 - s149 + 6.577757z283z149z3 <= 5.03
s283 - s151 + 6.617228z283z151z1 <= 5.03
s283 - s21 + 6.667396z283z21z3 <= 5.03
s283 - s299 + 6.681628z283z299z1 <= 5.03
s283 - s299 + 6.681628z283z299z3 <= 5.03
s283 - s251 + 6.690507z283z251z1 <= 5.03
s283 - s251 + 6.690507z283z251z3 <= 5.03
s283 - s214 + 6.703621z283z214z3 <= 5.03
s99 - s151 + 7.155862z99z151z1 <= 5.24
s99 - s21 + 7.210475z99z21z3 <= 5.24
s99 - s299 + 7.220706z99z299z1 <= 5.24
s99 - s299 + 7.220706z99z299z3 <= 5.24
s99 - s251 + 7.222577z99z251z1 <= 5.24
s99 - s251 + 7.222577z99z251z3 <= 5.24
s99 - s214 + 7.235198z99z214z3 <= 5.24
s290 - s1 + 6.629857z290z1z3 <= 5.11
s290 - s27 + 6.507566z290z27z3 <= 5.11
s290 - s95 + 6.511558z290z95z3 <= 5.11
s290 - s176 + 6.642165z290z176z3 <= 5.11
s290 - s185 + 6.491645z290z185z3 <= 5.11
s290 - s210 + 6.649448z290z210z3 <= 5.11
s290 - s271 + 6.617426z290z271z3 <= 5.11
s290 - s149 + 6.718198z290z149z3 <= 5.11
s290 - s21 + 6.800101z290z21z3 <= 5.11
s290 - s299 + 6.812621z290z299z3 <= 5.11
s290 - s251 + 6.817999z290z251z3 <= 5.11
s290 - s214 + 6.831285z290z214z3 <= 5.11
s1 - s149 + 8.027703z1z149z3 <= 6.92
s1 - s151 + 8.075492z1z151z1 <= 6.92
s1 - s21 + 8.118215z1z21z3 <= 6.92
s1 - s299 + 8.133020z1z299z1 <= 6.92
s1 - s299 + 8.133020z1z299z3 <= 6.92
s1 - s251 + 8.144103z1z251z1 <= 6.92
s1 - s251 + 8.144103z1z251z3 <= 6.92
s1 - s214 + 8.156455z1z214z3 <= 6.92
s17 - s118 + 8.126589z17z118z2 <= 6.77
s17 - s299 + 8.135209z17z299z1 <= 6.77
s17 - s251 + 8.146416z17z251z1 <= 6.77
s27 - s214 + 8.347462z27z214z3 <= 6.90
s61 - s118 + 8.168886z61z118z2 <= 6.91
s70 - s251 + 8.377399z70z251z1 <= 6.96
s74 - s214 + 7.681915z74z214z3 <= 6.24
s95 - s21 + 8.022074z95z21z3 <= 6.67
s95 - s299 + 8.036848z95z299z1 <= 6.67
s95 - s299 + 8.036848z95z299z3 <= 6.67
s95 - s251 + 8.047653z95z251z1 <= 6.67
s95 - s251 + 8.047653z95z251z3 <= 6.67
s95 - s214 + 8.060157z95z214z3 <= 6.67
s109 - s118 + 7.639107z109z118z2 <= 6.31
s113 - s118 + 8.170058z113z118z2 <= 6.79
s121 - s21 + 7.773658z121z21z3 <= 6.50
s121 - s299 + 7.787364z121z299z1 <= 6.50
s121 - s299 + 7.787364z121z299z3 <= 6.50
s121 - s251 + 7.795221z121z251z1 <= 6.50
s121 - s251 + 7.795221z121z251z3 <= 6.50
s121 - s214 + 7.808473z121z214z3 <= 6.50
s150 - s118 + 8.023106z150z118z2 <= 6.73
s150 - s299 + 8.031478z150z299z1 <= 6.73
s150 - s251 + 8.042126z150z251z1 <= 6.73
s176 - s151 + 8.024008z176z151z2 <= 6.90
s176 - s21 + 8.076132z176z21z3 <= 6.90
s176 - s118 + 8.081964z176z118z2 <= 6.90
s176 - s299 + 8.084872z176z299z3 <= 6.90
s176 - s251 + 8.085712z176z251z3 <= 6.90
s176 - s214 + 8.098214z176z214z3 <= 6.90
s185 - s214 + 8.147010z185z214z3 <= 6.71
s210 - s149 + 7.980000z210z149z3 <= 6.88
s210 - s21 + 8.036062z210z21z3 <= 6.88
s210 - s299 + 8.046667z210z299z3 <= 6.88
s210 - s251 + 8.049968z210z251z3 <= 6.88
s210 - s214 + 8.063061z210z214z3 <= 6.88
s222 - s118 + 8.140365z222z118z2 <= 6.79
s226 - s251 + 7.584461z226z251z1 <= 6.17
s228 - s118 + 8.305961z228z118z2 <= 6.96
s267 - s118 + 8.112828z267z118z2 <= 6.75
s271 - s149 + 7.880885z271z149z3 <= 6.78
s271 - s151 + 7.915974z271z151z1 <= 6.78
s271 - s21 + 7.967143z271z21z3 <= 6.78
s271 - s299 + 7.980998z271z299z1 <= 6.78
s271 - s299 + 7.980998z271z299z3 <= 6.78
s271 - s251 + 7.989338z271z251z1 <= 6.78
s271 - s251 + 7.989338z271z251z3 <= 6.78
s271 - s214 + 8.002511z271z214z3 <= 6.78
s212 - s151 + 8.138697z212z151z2 <= 7.02
s212 - s118 + 8.184654z212z118z2 <= 7.02
s149 - s21 + 8.220676z149z21z3 <= 7.13
s149 - s299 + 8.235410z149z299z3 <= 7.13
s149 - s251 + 8.246428z149z251z3 <= 7.13
s149 - s214 + 8.258755z149z214z3 <= 7.13
s151 - s118 + 8.241464z151z118z2 <= 7.18
s151 - s299 + 8.246999z151z299z1 <= 7.18
s151 - s251 + 8.253635z151z251z1 <= 7.18
s21 - s299 + 8.384907z21z299z3 <= 7.37
s21 - s251 + 8.398284z21z251z3 <= 7.37
s21 - s214 + 8.408873z21z214z3 <= 7.37
s299 - s251 + 8.414907z299z251z1 <= 7.40
s299 - s251 + 8.414907z299z251z3 <= 7.40
s299 - s214 + 8.424037z299z214z3 <= 7.40
s251 - s214 + 8.433333z251z214z3 <= 7.42

x95x27x1 - 1z95z27z1 <= 0
x95x27x3 - 1z95z27z3 <= 0
x95x70x1 - 2z95z70z1 <= 0
x95x149x3 - 2z95z149z3 <= 0
x95x151x1 - 1z95z151z1 <= 0
x95x21x3 - 2z95z21z3 <= 0
x95x299x1 - 1z95z299z1 <= 0
x95x299x3 - 1z95z299z3 <= 0
x95x251x1 - 1z95z251z1 <= 0
x95x251x3 - 1z95z251z3 <= 0
x95x214x3 - 2z95z214z3 <= 0
x267x17x2 - 1z267z17z2 <= 0
x267x113x2 - 2z267z113z2 <= 0
x267x222x2 - 2z267z222z2 <= 0
x267x228x2 - 2z267z228z2 <= 0
x267x267x2 - 2z267z267z2 <= 0
x267x212x2 - 2z267z212z2 <= 0
x267x151x2 - 1z267z151z2 <= 0
x267x118x2 - 2z267z118z2 <= 0
x113x113x2 - 2z113z113z2 <= 0
x113x228x2 - 2z113z228z2 <= 0
x113x212x2 - 2z113z212z2 <= 0
x113x151x2 - 1z113z151z2 <= 0
x113x118x2 - 2z113z118z2 <= 0
x222x222x2 - 2z222z222z2 <= 0
x222x228x2 - 2z222z228z2 <= 0
x222x212x2 - 2z222z212z2 <= 0
x222x151x2 - 1z222z151z2 <= 0
x222x118x2 - 2z222z118z2 <= 0
x262x1x1 - 1z262z1z1 <= 0
x262x1x3 - 1z262z1z3 <= 0
x262x17x1 - 1z262z17z1 <= 0
x262x27x1 - 1z262z27z1 <= 0
x262x27x3 - 1z262z27z3 <= 0
x262x30x3 - 1z262z30z3 <= 0
x262x70x1 - 2z262z70z1 <= 0
x262x74x3 - 2z262z74z3 <= 0
x262x95x1 - 1z262z95z1 <= 0
x262x95x3 - 1z262z95z3 <= 0
x262x121x1 - 1z262z121z1 <= 0
x262x121x3 - 1z262z121z3 <= 0
x262x122x1 - 1z262z122z1 <= 0
x262x122x3 - 1z262z122z3 <= 0
x262x150x1 - 1z262z150z1 <= 0
x262x176x3 - 1z262z176z3 <= 0
x262x185x1 - 1z262z185z1 <= 0
x262x185x3 - 1z262z185z3 <= 0
x262x210x3 - 2z262z210z3 <= 0
x262x271x1 - 1z262z271z1 <= 0
x262x271x3 - 1z262z271z3 <= 0
x262x149x3 - 2z262z149z3 <= 0
x262x151x1 - 1z262z151z1 <= 0
x262x21x3 - 2z262z21z3 <= 0
x262x299x1 - 1z262z299z1 <= 0
x262x299x3 - 1z262z299z3 <= 0
x262x251x1 - 1z262z251z1 <= 0
x262x251x3 - 1z262z251z3 <= 0
x262x214x3 - 2z262z214z3 <= 0
x4x1x3 - 1z4z1z3 <= 0
x4x17x2 - 1z4z17z2 <= 0
x4x27x3 - 1z4z27z3 <= 0
x4x61x2 - 2z4z61z2 <= 0
x4x74x3 - 2z4z74z3 <= 0
x4x95x3 - 1z4z95z3 <= 0
x4x109x2 - 2z4z109z2 <= 0
x4x113x2 - 2z4z113z2 <= 0
x4x121x3 - 1z4z121z3 <= 0
x4x122x3 - 1z4z122z3 <= 0
x4x150x2 - 1z4z150z2 <= 0
x4x176x2 - 1z4z176z2 <= 0
x4x176x3 - 1z4z176z3 <= 0
x4x185x3 - 1z4z185z3 <= 0
x4x210x3 - 2z4z210z3 <= 0
x4x222x2 - 2z4z222z2 <= 0
x4x228x2 - 2z4z228z2 <= 0
x4x267x2 - 2z4z267z2 <= 0
x4x271x3 - 1z4z271z3 <= 0
x4x212x2 - 2z4z212z2 <= 0
x4x149x3 - 2z4z149z3 <= 0
x4x151x2 - 1z4z151z2 <= 0
x4x21x3 - 2z4z21z3 <= 0
x4x118x2 - 2z4z118z2 <= 0
x4x299x3 - 1z4z299z3 <= 0
x4x251x3 - 1z4z251z3 <= 0
x4x214x3 - 2z4z214z3 <= 0
x266x17x2 - 1z266z17z2 <= 0
x266x30x2 - 1z266z30z2 <= 0
x266x61x2 - 2z266z61z2 <= 0
x266x109x2 - 2z266z109z2 <= 0
x266x113x2 - 2z266z113z2 <= 0
x266x150x2 - 1z266z150z2 <= 0
x266x176x2 - 1z266z176z2 <= 0
x266x222x2 - 2z266z222z2 <= 0
x266x226x2 - 1z266z226z2 <= 0
x266x228x2 - 2z266z228z2 <= 0
x266x267x2 - 2z266z267z2 <= 0
x266x212x2 - 2z266z212z2 <= 0
x266x151x2 - 1z266z151z2 <= 0
x266x118x2 - 2z266z118z2 <= 0
x38x1x1 - 1z38z1z1 <= 0
x38x17x1 - 1z38z17z1 <= 0
x38x27x1 - 1z38z27z1 <= 0
x38x70x1 - 2z38z70z1 <= 0
x38x95x1 - 1z38z95z1 <= 0
x38x121x1 - 1z38z121z1 <= 0
x38x150x1 - 1z38z150z1 <= 0
x38x185x1 - 1z38z185z1 <= 0
x38x271x1 - 1z38z271z1 <= 0
x38x151x1 - 1z38z151z1 <= 0
x38x299x1 - 1z38z299z1 <= 0
x38x251x1 - 1z38z251z1 <= 0
x86x1x1 - 1z86z1z1 <= 0
x86x17x1 - 1z86z17z1 <= 0
x86x17x2 - 1z86z17z2 <= 0
x86x27x1 - 1z86z27z1 <= 0
x86x61x2 - 2z86z61z2 <= 0
x86x70x1 - 2z86z70z1 <= 0
x86x95x1 - 1z86z95z1 <= 0
x86x113x2 - 2z86z113z2 <= 0
x86x121x1 - 1z86z121z1 <= 0
x86x150x1 - 1z86z150z1 <= 0
x86x150x2 - 1z86z150z2 <= 0
x86x176x2 - 1z86z176z2 <= 0
x86x185x1 - 1z86z185z1 <= 0
x86x222x2 - 2z86z222z2 <= 0
x86x228x2 - 2z86z228z2 <= 0
x86x267x2 - 2z86z267z2 <= 0
x86x271x1 - 1z86z271z1 <= 0
x86x212x2 - 2z86z212z2 <= 0
x86x151x1 - 1z86z151z1 <= 0
x86x151x2 - 1z86z151z2 <= 0
x86x118x2 - 2z86z118z2 <= 0
x86x299x1 - 1z86z299z1 <= 0
x86x251x1 - 1z86z251z1 <= 0
x132x1x1 - 1z132z1z1 <= 0
x132x1x3 - 1z132z1z3 <= 0
x132x27x1 - 1z132z27z1 <= 0
x132x27x3 - 1z132z27z3 <= 0
x132x70x1 - 2z132z70z1 <= 0
x132x176x3 - 1z132z176z3 <= 0
x132x149x3 - 2z132z149z3 <= 0
x132x151x1 - 1z132z151z1 <= 0
x132x21x3 - 2z132z21z3 <= 0
x132x299x1 - 1z132z299z1 <= 0
x132x299x3 - 1z132z299z3 <= 0
x132x251x1 - 1z132z251z1 <= 0
x132x251x3 - 1z132z251z3 <= 0
x132x214x3 - 2z132z214z3 <= 0
x283x1x1 - 1z283z1z1 <= 0
x283x1x3 - 1z283z1z3 <= 0
x283x17x1 - 1z283z17z1 <= 0
x283x27x1 - 1z283z27z1 <= 0
x283x27x3 - 1z283z27z3 <= 0
x283x70x1 - 2z283z70z1 <= 0
x283x95x1 - 1z283z95z1 <= 0
x283x95x3 - 1z283z95z3 <= 0
x283x121x1 - 1z283z121z1 <= 0
x283x121x3 - 1z283z121z3 <= 0
x283x150x1 - 1z283z150z1 <= 0
x283x176x3 - 1z283z176z3 <= 0
x283x185x1 - 1z283z185z1 <= 0
x283x185x3 - 1z283z185z3 <= 0
x283x210x3 - 2z283z210z3 <= 0
x283x271x1 - 1z283z271z1 <= 0
x283x271x3 - 1z283z271z3 <= 0
x283x149x3 - 2z283z149z3 <= 0
x283x151x1 - 1z283z151z1 <= 0
x283x21x3 - 2z283z21z3 <= 0
x283x299x1 - 1z283z299z1 <= 0
x283x299x3 - 1z283z299z3 <= 0
x283x251x1 - 1z283z251z1 <= 0
x283x251x3 - 1z283z251z3 <= 0
x283x214x3 - 2z283z214z3 <= 0
x99x151x1 - 1z99z151z1 <= 0
x99x21x3 - 2z99z21z3 <= 0
x99x299x1 - 1z99z299z1 <= 0
x99x299x3 - 1z99z299z3 <= 0
x99x251x1 - 1z99z251z1 <= 0
x99x251x3 - 1z99z251z3 <= 0
x99x214x3 - 2z99z214z3 <= 0
x290x1x3 - 1z290z1z3 <= 0
x290x27x3 - 1z290z27z3 <= 0
x290x95x3 - 1z290z95z3 <= 0
x290x176x3 - 1z290z176z3 <= 0
x290x185x3 - 1z290z185z3 <= 0
x290x210x3 - 2z290z210z3 <= 0
x290x271x3 - 1z290z271z3 <= 0
x290x149x3 - 2z290z149z3 <= 0
x290x21x3 - 2z290z21z3 <= 0
x290x299x3 - 1z290z299z3 <= 0
x290x251x3 - 1z290z251z3 <= 0
x290x214x3 - 2z290z214z3 <= 0
x1x149x3 - 2z1z149z3 <= 0
x1x151x1 - 1z1z151z1 <= 0
x1x21x3 - 2z1z21z3 <= 0
x1x299x1 - 1z1z299z1 <= 0
x1x299x3 - 1z1z299z3 <= 0
x1x251x1 - 1z1z251z1 <= 0
x1x251x3 - 1z1z251z3 <= 0
x1x214x3 - 2z1z214z3 <= 0
x1x0x1 <= 1
x1x0x3 <= 1
x17x118x2 - 2z17z118z2 <= 0
x17x299x1 - 1z17z299z1 <= 0
x17x251x1 - 1z17z251z1 <= 0
x17x0x1 <= 1
x17x0x2 <= 1
x27x214x3 - 2z27z214z3 <= 0
x27x0x1 <= 1
x27x0x3 <= 1
x30x0x2 <= 1
x30x0x3 <= 1
x61x118x2 - 2z61z118z2 <= 0
x61x0x2 <= 2
x70x251x1 - 1z70z251z1 <= 0
x70x0x1 <= 2
x74x214x3 - 2z74z214z3 <= 0
x74x0x3 <= 2
x95x21x3 - 2z95z21z3 <= 0
x95x299x1 - 1z95z299z1 <= 0
x95x299x3 - 1z95z299z3 <= 0
x95x251x1 - 1z95z251z1 <= 0
x95x251x3 - 1z95z251z3 <= 0
x95x214x3 - 2z95z214z3 <= 0
x95x0x1 <= 1
x95x0x3 <= 1
x109x118x2 - 2z109z118z2 <= 0
x109x0x2 <= 2
x113x118x2 - 2z113z118z2 <= 0
x113x0x2 <= 2
x121x21x3 - 2z121z21z3 <= 0
x121x299x1 - 1z121z299z1 <= 0
x121x299x3 - 1z121z299z3 <= 0
x121x251x1 - 1z121z251z1 <= 0
x121x251x3 - 1z121z251z3 <= 0
x121x214x3 - 2z121z214z3 <= 0
x121x0x1 <= 1
x121x0x3 <= 1
x122x0x1 <= 1
x122x0x3 <= 1
x150x118x2 - 2z150z118z2 <= 0
x150x299x1 - 1z150z299z1 <= 0
x150x251x1 - 1z150z251z1 <= 0
x150x0x1 <= 1
x150x0x2 <= 1
x176x151x2 - 1z176z151z2 <= 0
x176x21x3 - 2z176z21z3 <= 0
x176x118x2 - 2z176z118z2 <= 0
x176x299x3 - 1z176z299z3 <= 0
x176x251x3 - 1z176z251z3 <= 0
x176x214x3 - 2z176z214z3 <= 0
x176x0x2 <= 1
x176x0x3 <= 1
x185x214x3 - 2z185z214z3 <= 0
x185x0x1 <= 1
x185x0x3 <= 1
x210x149x3 - 2z210z149z3 <= 0
x210x21x3 - 2z210z21z3 <= 0
x210x299x3 - 1z210z299z3 <= 0
x210x251x3 - 1z210z251z3 <= 0
x210x214x3 - 2z210z214z3 <= 0
x210x0x3 <= 2
x222x118x2 - 2z222z118z2 <= 0
x222x0x2 <= 2
x226x251x1 - 1z226z251z1 <= 0
x226x0x1 <= 1
x226x0x2 <= 1
x228x118x2 - 2z228z118z2 <= 0
x228x0x2 <= 2
x267x118x2 - 2z267z118z2 <= 0
x267x0x2 <= 2
x271x149x3 - 2z271z149z3 <= 0
x271x151x1 - 1z271z151z1 <= 0
x271x21x3 - 2z271z21z3 <= 0
x271x299x1 - 1z271z299z1 <= 0
x271x299x3 - 1z271z299z3 <= 0
x271x251x1 - 1z271z251z1 <= 0
x271x251x3 - 1z271z251z3 <= 0
x271x214x3 - 2z271z214z3 <= 0
x271x0x1 <= 1
x271x0x3 <= 1
x212x151x2 - 1z212z151z2 <= 0
x212x118x2 - 2z212z118z2 <= 0
x212x0x2 <= 2
x149x21x3 - 2z149z21z3 <= 0
x149x299x3 - 1z149z299z3 <= 0
x149x251x3 - 1z149z251z3 <= 0
x149x214x3 - 2z149z214z3 <= 0
x149x0x3 <= 2
x151x118x2 - 2z151z118z2 <= 0
x151x299x1 - 1z151z299z1 <= 0
x151x251x1 - 1z151z251z1 <= 0
x151x0x1 <= 1
x151x0x2 <= 1
x21x299x3 - 1z21z299z3 <= 0
x21x251x3 - 1z21z251z3 <= 0
x21x214x3 - 2z21z214z3 <= 0
x21x0x3 <= 2
x118x0x2 <= 2
x299x251x1 - 1z299z251z1 <= 0
x299x251x3 - 1z299z251z3 <= 0
x299x214x3 - 2z299z214z3 <= 0
x299x0x1 <= 1
x299x0x3 <= 1
x251x214x3 - 2z251z214z3 <= 0
x251x0x1 <= 1
x251x0x3 <= 1
x214x0x3 <= 2

Bounds
s122 = 5.980900
s95 = 5.782542
s267 = 5.750000
s113 = 5.790000
s222 = 5.790000
s262 = 4.832470
s4 = 4.856050
s266 = 4.784240
s38 = 4.939700
s86 = 5.042010
s132 = 5.077290
s283 = 5.032800
s99 = 5.235910
s290 = 5.108790
6.000000 <= s1 <= 6.920000
6.000000 <= s17 <= 6.770000
6.000000 <= s27 <= 6.900000
6.000000 <= s30 <= 6.220000
6.000000 <= s61 <= 6.910000
6.000000 <= s70 <= 6.960000
6.000000 <= s74 <= 6.240000
6.000000 <= s95 <= 6.670000
6.000000 <= s109 <= 6.310000
6.000000 <= s113 <= 6.790000
6.000000 <= s121 <= 6.500000
6.000000 <= s122 <= 6.080000
6.000000 <= s150 <= 6.730000
6.000000 <= s176 <= 6.900000
6.000000 <= s185 <= 6.710000
6.000000 <= s210 <= 6.880000
6.000000 <= s222 <= 6.790000
6.000000 <= s226 <= 6.170000
6.000000 <= s228 <= 6.960000
6.000000 <= s267 <= 6.750000
6.000000 <= s271 <= 6.780000
6.020000 <= s212 <= 7.020000
6.130000 <= s149 <= 7.130000
6.180000 <= s151 <= 7.180000
6.370000 <= s21 <= 7.370000
6.390000 <= s118 <= 7.390000
6.400000 <= s299 <= 7.400000
6.420000 <= s251 <= 7.420000
6.460000 <= s214 <= 7.460000

General

x95x27x1 x95x27x3 x95x70x1 x95x149x3 x95x151x1 x95x21x3 x95x299x1 x95x299x3 x95x251x1 x95x251x3 x95x214x3 
x267x17x2 x267x113x2 x267x222x2 x267x228x2 x267x267x2 x267x212x2 x267x151x2 x267x118x2 
x113x113x2 x113x228x2 x113x212x2 x113x151x2 x113x118x2 
x222x222x2 x222x228x2 x222x212x2 x222x151x2 x222x118x2 
x262x1x1 x262x1x3 x262x17x1 x262x27x1 x262x27x3 x262x30x3 x262x70x1 x262x74x3 x262x95x1 x262x95x3 x262x121x1 x262x121x3 x262x122x1 x262x122x3 x262x150x1 x262x176x3 x262x185x1 x262x185x3 x262x210x3 x262x271x1 x262x271x3 x262x149x3 x262x151x1 x262x21x3 x262x299x1 x262x299x3 x262x251x1 x262x251x3 x262x214x3 
x4x1x3 x4x17x2 x4x27x3 x4x61x2 x4x74x3 x4x95x3 x4x109x2 x4x113x2 x4x121x3 x4x122x3 x4x150x2 x4x176x2 x4x176x3 x4x185x3 x4x210x3 x4x222x2 x4x228x2 x4x267x2 x4x271x3 x4x212x2 x4x149x3 x4x151x2 x4x21x3 x4x118x2 x4x299x3 x4x251x3 x4x214x3 
x266x17x2 x266x30x2 x266x61x2 x266x109x2 x266x113x2 x266x150x2 x266x176x2 x266x222x2 x266x226x2 x266x228x2 x266x267x2 x266x212x2 x266x151x2 x266x118x2 
x38x1x1 x38x17x1 x38x27x1 x38x70x1 x38x95x1 x38x121x1 x38x150x1 x38x185x1 x38x271x1 x38x151x1 x38x299x1 x38x251x1 
x86x1x1 x86x17x1 x86x17x2 x86x27x1 x86x61x2 x86x70x1 x86x95x1 x86x113x2 x86x121x1 x86x150x1 x86x150x2 x86x176x2 x86x185x1 x86x222x2 x86x228x2 x86x267x2 x86x271x1 x86x212x2 x86x151x1 x86x151x2 x86x118x2 x86x299x1 x86x251x1 
x132x1x1 x132x1x3 x132x27x1 x132x27x3 x132x70x1 x132x176x3 x132x149x3 x132x151x1 x132x21x3 x132x299x1 x132x299x3 x132x251x1 x132x251x3 x132x214x3 
x283x1x1 x283x1x3 x283x17x1 x283x27x1 x283x27x3 x283x70x1 x283x95x1 x283x95x3 x283x121x1 x283x121x3 x283x150x1 x283x176x3 x283x185x1 x283x185x3 x283x210x3 x283x271x1 x283x271x3 x283x149x3 x283x151x1 x283x21x3 x283x299x1 x283x299x3 x283x251x1 x283x251x3 x283x214x3 
x99x151x1 x99x21x3 x99x299x1 x99x299x3 x99x251x1 x99x251x3 x99x214x3 
x290x1x3 x290x27x3 x290x95x3 x290x176x3 x290x185x3 x290x210x3 x290x271x3 x290x149x3 x290x21x3 x290x299x3 x290x251x3 x290x214x3 
x1x149x3 x1x151x1 x1x21x3 x1x299x1 x1x299x3 x1x251x1 x1x251x3 x1x214x3 x1x0x1 x1x0x3 
x17x118x2 x17x299x1 x17x251x1 x17x0x1 x17x0x2 
x27x214x3 x27x0x1 x27x0x3 
x30x0x2 x30x0x3 
x61x118x2 x61x0x2 
x70x251x1 x70x0x1 
x74x214x3 x74x0x3 
x95x21x3 x95x299x1 x95x299x3 x95x251x1 x95x251x3 x95x214x3 x95x0x1 x95x0x3 
x109x118x2 x109x0x2 
x113x118x2 x113x0x2 
x121x21x3 x121x299x1 x121x299x3 x121x251x1 x121x251x3 x121x214x3 x121x0x1 x121x0x3 
x122x0x1 x122x0x3 
x150x118x2 x150x299x1 x150x251x1 x150x0x1 x150x0x2 
x176x151x2 x176x21x3 x176x118x2 x176x299x3 x176x251x3 x176x214x3 x176x0x2 x176x0x3 
x185x214x3 x185x0x1 x185x0x3 
x210x149x3 x210x21x3 x210x299x3 x210x251x3 x210x214x3 x210x0x3 
x222x118x2 x222x0x2 
x226x251x1 x226x0x1 x226x0x2 
x228x118x2 x228x0x2 
x267x118x2 x267x0x2 
x271x149x3 x271x151x1 x271x21x3 x271x299x1 x271x299x3 x271x251x1 x271x251x3 x271x214x3 x271x0x1 x271x0x3 
x212x151x2 x212x118x2 x212x0x2 
x149x21x3 x149x299x3 x149x251x3 x149x214x3 x149x0x3 
x151x118x2 x151x299x1 x151x251x1 x151x0x1 x151x0x2 
x21x299x3 x21x251x3 x21x214x3 x21x0x3 
x118x0x2 
x299x251x1 x299x251x3 x299x214x3 x299x0x1 x299x0x3 
x251x214x3 x251x0x1 x251x0x3 
x214x0x3 

Binaries
y1 y17 y27 y30 y61 y70 y74 y95 y109 y113 y121 y122 y150 y176 y185 y210 y222 y226 y228 y267 y271 y212 y149 y151 y21 y118 y299 y251 y214 

z95z27z1 z95z27z3 z95z70z1 z95z149z3 z95z151z1 z95z21z3 z95z299z1 z95z299z3 z95z251z1 z95z251z3 z95z214z3 
z267z17z2 z267z113z2 z267z222z2 z267z228z2 z267z267z2 z267z212z2 z267z151z2 z267z118z2 
z113z113z2 z113z228z2 z113z212z2 z113z151z2 z113z118z2 
z222z222z2 z222z228z2 z222z212z2 z222z151z2 z222z118z2 
z262z1z1 z262z1z3 z262z17z1 z262z27z1 z262z27z3 z262z30z3 z262z70z1 z262z74z3 z262z95z1 z262z95z3 z262z121z1 z262z121z3 z262z122z1 z262z122z3 z262z150z1 z262z176z3 z262z185z1 z262z185z3 z262z210z3 z262z271z1 z262z271z3 z262z149z3 z262z151z1 z262z21z3 z262z299z1 z262z299z3 z262z251z1 z262z251z3 z262z214z3 
z4z1z3 z4z17z2 z4z27z3 z4z61z2 z4z74z3 z4z95z3 z4z109z2 z4z113z2 z4z121z3 z4z122z3 z4z150z2 z4z176z2 z4z176z3 z4z185z3 z4z210z3 z4z222z2 z4z228z2 z4z267z2 z4z271z3 z4z212z2 z4z149z3 z4z151z2 z4z21z3 z4z118z2 z4z299z3 z4z251z3 z4z214z3 
z266z17z2 z266z30z2 z266z61z2 z266z109z2 z266z113z2 z266z150z2 z266z176z2 z266z222z2 z266z226z2 z266z228z2 z266z267z2 z266z212z2 z266z151z2 z266z118z2 
z38z1z1 z38z17z1 z38z27z1 z38z70z1 z38z95z1 z38z121z1 z38z150z1 z38z185z1 z38z271z1 z38z151z1 z38z299z1 z38z251z1 
z86z1z1 z86z17z1 z86z17z2 z86z27z1 z86z61z2 z86z70z1 z86z95z1 z86z113z2 z86z121z1 z86z150z1 z86z150z2 z86z176z2 z86z185z1 z86z222z2 z86z228z2 z86z267z2 z86z271z1 z86z212z2 z86z151z1 z86z151z2 z86z118z2 z86z299z1 z86z251z1 
z132z1z1 z132z1z3 z132z27z1 z132z27z3 z132z70z1 z132z176z3 z132z149z3 z132z151z1 z132z21z3 z132z299z1 z132z299z3 z132z251z1 z132z251z3 z132z214z3 
z283z1z1 z283z1z3 z283z17z1 z283z27z1 z283z27z3 z283z70z1 z283z95z1 z283z95z3 z283z121z1 z283z121z3 z283z150z1 z283z176z3 z283z185z1 z283z185z3 z283z210z3 z283z271z1 z283z271z3 z283z149z3 z283z151z1 z283z21z3 z283z299z1 z283z299z3 z283z251z1 z283z251z3 z283z214z3 
z99z151z1 z99z21z3 z99z299z1 z99z299z3 z99z251z1 z99z251z3 z99z214z3 
z290z1z3 z290z27z3 z290z95z3 z290z176z3 z290z185z3 z290z210z3 z290z271z3 z290z149z3 z290z21z3 z290z299z3 z290z251z3 z290z214z3 
z1z149z3 z1z151z1 z1z21z3 z1z299z1 z1z299z3 z1z251z1 z1z251z3 z1z214z3 
z17z118z2 z17z299z1 z17z251z1 
z27z214z3 

z61z118z2 
z70z251z1 
z74z214z3 
z95z21z3 z95z299z1 z95z299z3 z95z251z1 z95z251z3 z95z214z3 
z109z118z2 
z113z118z2 
z121z21z3 z121z299z1 z121z299z3 z121z251z1 z121z251z3 z121z214z3 

z150z118z2 z150z299z1 z150z251z1 
z176z151z2 z176z21z3 z176z118z2 z176z299z3 z176z251z3 z176z214z3 
z185z214z3 
z210z149z3 z210z21z3 z210z299z3 z210z251z3 z210z214z3 
z222z118z2 
z226z251z1 
z228z118z2 
z267z118z2 
z271z149z3 z271z151z1 z271z21z3 z271z299z1 z271z299z3 z271z251z1 z271z251z3 z271z214z3 
z212z151z2 z212z118z2 
z149z21z3 z149z299z3 z149z251z3 z149z214z3 
z151z118z2 z151z299z1 z151z251z1 
z21z299z3 z21z251z3 z21z214z3 

z299z251z1 z299z251z3 z299z214z3 
z251z214z3 


End